8864
2312
6393
3719
6614
5421
3543
4786
4378
6623
2123
7900
6239
7235
8095
8371
634
4394
4577
7166
5863
7794
1830
7954
7074
986
846
8321
8876
8427
4587
1012
6764
8314
7449
2356
10172
3424
2725
8709
1436
441
8213
3585
5755
3949
3914
4081
8666
3530
